clingo version 5.4.0
Reading from clingo\rna_ss_prediction_E1.lp
Solving...
Answer: 1
seq(1,c) seq(2,u) seq(3,u) seq(4,a) seq(5,c) seq(6,c) seq(7,a) seq(8,u) seq(9,c) seq(10,g) seq(11,g) seq(12,u) seq(13,u) seq(14,a) seq(15,g) seq(16,a) seq(17,g) seq(18,g) seq(19,a) seq(20,g) contacts(0) energy1(0)
Optimization: 0
Answer: 2
seq(1,c) seq(2,u) seq(3,u) seq(4,a) seq(5,c) seq(6,c) seq(7,a) seq(8,u) seq(9,c) seq(10,g) seq(11,g) seq(12,u) seq(13,u) seq(14,a) seq(15,g) seq(16,a) seq(17,g) seq(18,g) seq(19,a) seq(20,g) pairing(1,20) pairing(20,1) contacts(2) energy1(200)
Optimization: -200
Answer: 3
seq(1,c) seq(2,u) seq(3,u) seq(4,a) seq(5,c) seq(6,c) seq(7,a) seq(8,u) seq(9,c) seq(10,g) seq(11,g) seq(12,u) seq(13,u) seq(14,a) seq(15,g) seq(16,a) seq(17,g) seq(18,g) seq(19,a) seq(20,g) pairing(1,20) pairing(20,1) pairing(13,15) pairing(15,13) contacts(4) energy1(400)
Optimization: -400
Answer: 4
seq(1,c) seq(2,u) seq(3,u) seq(4,a) seq(5,c) seq(6,c) seq(7,a) seq(8,u) seq(9,c) seq(10,g) seq(11,g) seq(12,u) seq(13,u) seq(14,a) seq(15,g) seq(16,a) seq(17,g) seq(18,g) seq(19,a) seq(20,g) pairing(1,20) pairing(20,1) pairing(13,15) pairing(15,13) pairing(8,10) pairing(10,8) contacts(6) energy1(600)
Optimization: -600
Answer: 5
seq(1,c) seq(2,u) seq(3,u) seq(4,a) seq(5,c) seq(6,c) seq(7,a) seq(8,u) seq(9,c) seq(10,g) seq(11,g) seq(12,u) seq(13,u) seq(14,a) seq(15,g) seq(16,a) seq(17,g) seq(18,g) seq(19,a) seq(20,g) pairing(1,20) pairing(20,1) pairing(13,15) pairing(15,13) pairing(8,10) pairing(10,8) pairing(2,4) pairing(4,2) contacts(8) energy1(800)
Optimization: -800
Answer: 6
seq(1,c) seq(2,u) seq(3,u) seq(4,a) seq(5,c) seq(6,c) seq(7,a) seq(8,u) seq(9,c) seq(10,g) seq(11,g) seq(12,u) seq(13,u) seq(14,a) seq(15,g) seq(16,a) seq(17,g) seq(18,g) seq(19,a) seq(20,g) pairing(1,20) pairing(20,1) pairing(13,19) pairing(19,13) pairing(2,11) pairing(11,2) pairing(3,10) pairing(10,3) pairing(4,8) pairing(8,4) contacts(10) energy1(1000)
Optimization: -1000
Answer: 7
seq(1,c) seq(2,u) seq(3,u) seq(4,a) seq(5,c) seq(6,c) seq(7,a) seq(8,u) seq(9,c) seq(10,g) seq(11,g) seq(12,u) seq(13,u) seq(14,a) seq(15,g) seq(16,a) seq(17,g) seq(18,g) seq(19,a) seq(20,g) pairing(1,20) pairing(20,1) pairing(12,19) pairing(19,12) pairing(13,18) pairing(18,13) pairing(2,11) pairing(11,2) pairing(3,10) pairing(10,3) pairing(4,8) pairing(8,4) contacts(12) energy1(1200)
Optimization: -1200
Answer: 8
seq(1,c) seq(2,u) seq(3,u) seq(4,a) seq(5,c) seq(6,c) seq(7,a) seq(8,u) seq(9,c) seq(10,g) seq(11,g) seq(12,u) seq(13,u) seq(14,a) seq(15,g) seq(16,a) seq(17,g) seq(18,g) seq(19,a) seq(20,g) pairing(1,20) pairing(20,1) pairing(2,19) pairing(19,2) pairing(3,18) pairing(18,3) pairing(9,17) pairing(17,9) pairing(13,16) pairing(16,13) pairing(10,12) pairing(12,10) pairing(4,8) pairing(8,4) contacts(14) energy1(1400)
Optimization: -1400
Answer: 9
seq(1,c) seq(2,u) seq(3,u) seq(4,a) seq(5,c) seq(6,c) seq(7,a) seq(8,u) seq(9,c) seq(10,g) seq(11,g) seq(12,u) seq(13,u) seq(14,a) seq(15,g) seq(16,a) seq(17,g) seq(18,g) seq(19,a) seq(20,g) pairing(1,20) pairing(20,1) pairing(2,19) pairing(19,2) pairing(3,18) pairing(18,3) pairing(5,17) pairing(17,5) pairing(12,16) pairing(16,12) pairing(13,15) pairing(15,13) pairing(6,11) pairing(11,6) pairing(8,10) pairing(10,8) contacts(16) energy1(1600)
Optimization: -1600
OPTIMUM FOUND

Models       : 9
  Optimum    : yes
Optimization : -1600
Calls        : 1
Time         : 1.239s (Solving: 1.17s 1st Model: 0.00s Unsat: 1.04s)
CPU Time     : 1.234s